NAME : random_11
COMMENT : 30 random nodes
TYPE : TSP
DIMENSION : 30
EDGE_WEIGHT_TYPE : EUC_2D
NODE_COORD_SECTION
1 547 42
2 102 390
3 555 285
4 880 384
5 96 577
6 625 281
7 98 570
8 695 737
9 973 711
10 878 465
11 240 419
12 965 582
13 170 489
14 583 345
15 476 491
16 244 345
17 831 334
18 544 815
19 192 597
20 105 554
21 323 84
22 34 1000
23 444 152
24 906 31
25 635 147
26 441 535
27 836 365
28 251 423
29 161 858
30 937 648
EOF